
Gurobi 12.0.2 (win64) logging started Tue May 27 13:58:07 2025

Set parameter LogFile to value "C:\Ioana\_uni\honours\slp\algorithm\Main_files\results\paracetamol\Task_002_Sample001_irr_gurobi.log"
Gurobi Optimizer version 12.0.2 build v12.0.2rc0 (win64 - Windows 11.0 (26100.2))

CPU model: Intel(R) Core(TM) Ultra 5 125H, instruction set [SSE2|AVX|AVX2]
Thread count: 14 physical cores, 18 logical processors, using up to 18 threads

Non-default parameters:
TimeLimit  2200

Optimize a model with 47226 rows, 34495 columns and 146682 nonzeros
Model fingerprint: 0x9daf47b6
Variable types: 17250 continuous, 17245 integer (17245 binary)
Coefficient statistics:
  Matrix range     [1e-04, 8e+04]
  Objective range  [4e-04, 9e-01]
  Bounds range     [1e+00, 1e+03]
  RHS range        [1e+00, 1e+00]
Found heuristic solution: objective 1.1577035
Presolve removed 33945 rows and 23899 columns
Presolve time: 0.35s
Presolved: 13281 rows, 10596 columns, 42923 nonzeros
Variable types: 5252 continuous, 5344 integer (5344 binary)

Root relaxation: objective 4.317031e-05, 307 iterations, 0.02 seconds (0.02 work units)

    Nodes    |    Current Node    |     Objective Bounds      |     Work
 Expl Unexpl |  Obj  Depth IntInf | Incumbent    BestBd   Gap | It/Node Time

     0     0    0.00004    0    4    1.15770    0.00004   100%     -    0s
H    0     0                       0.0431703    0.00004   100%     -    0s
     0     0    0.03176    0    5    0.04317    0.03176  26.4%     -    0s

Cutting planes:
  Implied bound: 1
  MIR: 6
  Flow cover: 8
  Network: 1

Explored 1 nodes (419 simplex iterations) in 0.60 seconds (0.52 work units)
Thread count was 18 (of 18 available processors)

Solution count 2: 0.0431703 1.1577 

Optimal solution found (tolerance 1.00e-04)
Best objective 4.317030538964e-02, best bound 4.317030538964e-02, gap 0.0000%
